c nIsolatedPIs 3
c maxPI 132
p cnf 795 1990
c gate 133 -103 127 0
-103 -133 0
127 -133 0
103 -127 133 0
c gate 134 -105 -127 0
-105 -134 0
-127 -134 0
105 127 134 0
c gate 135 126 -134 0
126 -135 0
-134 -135 0
-126 134 135 0
c gate 136 -133 135 0
-133 -136 0
135 -136 0
133 -135 136 0
c gate 137 -106 -127 0
-106 -137 0
-127 -137 0
106 127 137 0
c gate 138 -104 127 0
-104 -138 0
127 -138 0
104 -127 138 0
c gate 139 -137 -138 0
-137 -139 0
-138 -139 0
137 138 139 0
c gate 140 -126 139 0
-126 -140 0
139 -140 0
126 -139 140 0
c gate 141 -129 -140 0
-129 -141 0
-140 -141 0
129 140 141 0
c gate 142 -136 141 0
-136 -142 0
141 -142 0
136 -141 142 0
c gate 143 -95 127 0
-95 -143 0
127 -143 0
95 -127 143 0
c gate 144 -97 -127 0
-97 -144 0
-127 -144 0
97 127 144 0
c gate 145 -143 -144 0
-143 -145 0
-144 -145 0
143 144 145 0
c gate 146 126 145 0
126 -146 0
145 -146 0
-126 -145 146 0
c gate 147 -98 -127 0
-98 -147 0
-127 -147 0
98 127 147 0
c gate 148 -96 127 0
-96 -148 0
127 -148 0
96 -127 148 0
c gate 149 -126 -148 0
-126 -149 0
-148 -149 0
126 148 149 0
c gate 150 -147 149 0
-147 -150 0
149 -150 0
147 -149 150 0
c gate 151 129 -150 0
129 -151 0
-150 -151 0
-129 150 151 0
c gate 152 -146 151 0
-146 -152 0
151 -152 0
146 -151 152 0
c gate 153 -142 -152 0
-142 -153 0
-152 -153 0
142 152 153 0
c gate 154 128 -153 0
128 -154 0
-153 -154 0
-128 153 154 0
c gate 155 -99 127 0
-99 -155 0
127 -155 0
99 -127 155 0
c gate 156 -101 -127 0
-101 -156 0
-127 -156 0
101 127 156 0
c gate 157 -155 -156 0
-155 -157 0
-156 -157 0
155 156 157 0
c gate 158 126 157 0
126 -158 0
157 -158 0
-126 -157 158 0
c gate 159 -102 -127 0
-102 -159 0
-127 -159 0
102 127 159 0
c gate 160 -100 127 0
-100 -160 0
127 -160 0
100 -127 160 0
c gate 161 -126 -160 0
-126 -161 0
-160 -161 0
126 160 161 0
c gate 162 -159 161 0
-159 -162 0
161 -162 0
159 -161 162 0
c gate 163 129 -162 0
129 -163 0
-162 -163 0
-129 162 163 0
c gate 164 -158 163 0
-158 -164 0
163 -164 0
158 -163 164 0
c gate 165 -107 127 0
-107 -165 0
127 -165 0
107 -127 165 0
c gate 166 -109 -127 0
-109 -166 0
-127 -166 0
109 127 166 0
c gate 167 126 -166 0
126 -167 0
-166 -167 0
-126 166 167 0
c gate 168 -165 167 0
-165 -168 0
167 -168 0
165 -167 168 0
c gate 169 -110 -127 0
-110 -169 0
-127 -169 0
110 127 169 0
c gate 170 -108 127 0
-108 -170 0
127 -170 0
108 -127 170 0
c gate 171 -169 -170 0
-169 -171 0
-170 -171 0
169 170 171 0
c gate 172 -126 171 0
-126 -172 0
171 -172 0
126 -171 172 0
c gate 173 -129 -172 0
-129 -173 0
-172 -173 0
129 172 173 0
c gate 174 -168 173 0
-168 -174 0
173 -174 0
168 -173 174 0
c gate 175 -164 -174 0
-164 -175 0
-174 -175 0
164 174 175 0
c gate 176 -128 -175 0
-128 -176 0
-175 -176 0
128 175 176 0
c gate 177 -131 -176 0
-131 -177 0
-176 -177 0
131 176 177 0
c gate 178 -154 177 0
-154 -178 0
177 -178 0
154 -177 178 0
c gate 179 -72 127 0
-72 -179 0
127 -179 0
72 -127 179 0
c gate 180 -74 -127 0
-74 -180 0
-127 -180 0
74 127 180 0
c gate 181 126 -180 0
126 -181 0
-180 -181 0
-126 180 181 0
c gate 182 -179 181 0
-179 -182 0
181 -182 0
179 -181 182 0
c gate 183 -75 -127 0
-75 -183 0
-127 -183 0
75 127 183 0
c gate 184 -73 127 0
-73 -184 0
127 -184 0
73 -127 184 0
c gate 185 -183 -184 0
-183 -185 0
-184 -185 0
183 184 185 0
c gate 186 -126 185 0
-126 -186 0
185 -186 0
126 -185 186 0
c gate 187 -129 -186 0
-129 -187 0
-186 -187 0
129 186 187 0
c gate 188 -182 187 0
-182 -188 0
187 -188 0
182 -187 188 0
c gate 189 -64 127 0
-64 -189 0
127 -189 0
64 -127 189 0
c gate 190 -66 -127 0
-66 -190 0
-127 -190 0
66 127 190 0
c gate 191 -189 -190 0
-189 -191 0
-190 -191 0
189 190 191 0
c gate 192 126 191 0
126 -192 0
191 -192 0
-126 -191 192 0
c gate 193 -67 -127 0
-67 -193 0
-127 -193 0
67 127 193 0
c gate 194 -65 127 0
-65 -194 0
127 -194 0
65 -127 194 0
c gate 195 -193 -194 0
-193 -195 0
-194 -195 0
193 194 195 0
c gate 196 -126 195 0
-126 -196 0
195 -196 0
126 -195 196 0
c gate 197 129 -196 0
129 -197 0
-196 -197 0
-129 196 197 0
c gate 198 -192 197 0
-192 -198 0
197 -198 0
192 -197 198 0
c gate 199 -188 -198 0
-188 -199 0
-198 -199 0
188 198 199 0
c gate 200 128 -199 0
128 -200 0
-199 -200 0
-128 199 200 0
c gate 201 -68 127 0
-68 -201 0
127 -201 0
68 -127 201 0
c gate 202 -70 -127 0
-70 -202 0
-127 -202 0
70 127 202 0
c gate 203 126 -202 0
126 -203 0
-202 -203 0
-126 202 203 0
c gate 204 -201 203 0
-201 -204 0
203 -204 0
201 -203 204 0
c gate 205 -71 -127 0
-71 -205 0
-127 -205 0
71 127 205 0
c gate 206 -69 127 0
-69 -206 0
127 -206 0
69 -127 206 0
c gate 207 -205 -206 0
-205 -207 0
-206 -207 0
205 206 207 0
c gate 208 -126 207 0
-126 -208 0
207 -208 0
126 -207 208 0
c gate 209 129 -208 0
129 -209 0
-208 -209 0
-129 208 209 0
c gate 210 -204 209 0
-204 -210 0
209 -210 0
204 -209 210 0
c gate 211 -76 127 0
-76 -211 0
127 -211 0
76 -127 211 0
c gate 212 -78 -127 0
-78 -212 0
-127 -212 0
78 127 212 0
c gate 213 126 -212 0
126 -213 0
-212 -213 0
-126 212 213 0
c gate 214 -211 213 0
-211 -214 0
213 -214 0
211 -213 214 0
c gate 215 -79 -127 0
-79 -215 0
-127 -215 0
79 127 215 0
c gate 216 -77 127 0
-77 -216 0
127 -216 0
77 -127 216 0
c gate 217 -215 -216 0
-215 -217 0
-216 -217 0
215 216 217 0
c gate 218 -126 217 0
-126 -218 0
217 -218 0
126 -217 218 0
c gate 219 -129 -218 0
-129 -219 0
-218 -219 0
129 218 219 0
c gate 220 -214 219 0
-214 -220 0
219 -220 0
214 -219 220 0
c gate 221 -210 -220 0
-210 -221 0
-220 -221 0
210 220 221 0
c gate 222 -128 -221 0
-128 -222 0
-221 -222 0
128 221 222 0
c gate 223 131 -222 0
131 -223 0
-222 -223 0
-131 222 223 0
c gate 224 -200 223 0
-200 -224 0
223 -224 0
200 -223 224 0
c gate 225 130 -224 0
130 -225 0
-224 -225 0
-130 224 225 0
c gate 226 -178 225 0
-178 -226 0
225 -226 0
178 -225 226 0
c gate 227 -132 226 0
-132 -227 0
226 -227 0
132 -226 227 0
c gate 228 39 -127 0
39 -228 0
-127 -228 0
-39 127 228 0
c gate 229 37 127 0
37 -229 0
127 -229 0
-37 -127 229 0
c gate 230 126 -229 0
126 -230 0
-229 -230 0
-126 229 230 0
c gate 231 -228 230 0
-228 -231 0
230 -231 0
228 -230 231 0
c gate 232 40 -127 0
40 -232 0
-127 -232 0
-40 127 232 0
c gate 233 38 127 0
38 -233 0
127 -233 0
-38 -127 233 0
c gate 234 -126 -233 0
-126 -234 0
-233 -234 0
126 233 234 0
c gate 235 -232 234 0
-232 -235 0
234 -235 0
232 -234 235 0
c gate 236 129 -235 0
129 -236 0
-235 -236 0
-129 235 236 0
c gate 237 -231 236 0
-231 -237 0
236 -237 0
231 -236 237 0
c gate 238 48 -127 0
48 -238 0
-127 -238 0
-48 127 238 0
c gate 239 46 127 0
46 -239 0
127 -239 0
-46 -127 239 0
c gate 240 -238 -239 0
-238 -240 0
-239 -240 0
238 239 240 0
c gate 241 -126 -240 0
-126 -241 0
-240 -241 0
126 240 241 0
c gate 242 -47 -127 0
-47 -242 0
-127 -242 0
47 127 242 0
c gate 243 -45 127 0
-45 -243 0
127 -243 0
45 -127 243 0
c gate 244 -242 -243 0
-242 -244 0
-243 -244 0
242 243 244 0
c gate 245 126 244 0
126 -245 0
244 -245 0
-126 -244 245 0
c gate 246 -241 -245 0
-241 -246 0
-245 -246 0
241 245 246 0
c gate 247 -129 -246 0
-129 -247 0
-246 -247 0
129 246 247 0
c gate 248 -128 -247 0
-128 -248 0
-247 -248 0
128 247 248 0
c gate 249 -237 248 0
-237 -249 0
248 -249 0
237 -248 249 0
c gate 250 -41 127 0
-41 -250 0
127 -250 0
41 -127 250 0
c gate 251 -43 -127 0
-43 -251 0
-127 -251 0
43 127 251 0
c gate 252 126 -251 0
126 -252 0
-251 -252 0
-126 251 252 0
c gate 253 -250 252 0
-250 -253 0
252 -253 0
250 -252 253 0
c gate 254 -42 127 0
-42 -254 0
127 -254 0
42 -127 254 0
c gate 255 -44 -127 0
-44 -255 0
-127 -255 0
44 127 255 0
c gate 256 -126 -255 0
-126 -256 0
-255 -256 0
126 255 256 0
c gate 257 -254 256 0
-254 -257 0
256 -257 0
254 -256 257 0
c gate 258 -253 -257 0
-253 -258 0
-257 -258 0
253 257 258 0
c gate 259 -129 -258 0
-129 -259 0
-258 -259 0
129 258 259 0
c gate 260 -33 127 0
-33 -260 0
127 -260 0
33 -127 260 0
c gate 261 -35 -127 0
-35 -261 0
-127 -261 0
35 127 261 0
c gate 262 126 -261 0
126 -262 0
-261 -262 0
-126 261 262 0
c gate 263 -260 262 0
-260 -263 0
262 -263 0
260 -262 263 0
c gate 264 -34 127 0
-34 -264 0
127 -264 0
34 -127 264 0
c gate 265 -36 -127 0
-36 -265 0
-127 -265 0
36 127 265 0
c gate 266 -126 -265 0
-126 -266 0
-265 -266 0
126 265 266 0
c gate 267 -264 266 0
-264 -267 0
266 -267 0
264 -266 267 0
c gate 268 -263 -267 0
-263 -268 0
-267 -268 0
263 267 268 0
c gate 269 129 -268 0
129 -269 0
-268 -269 0
-129 268 269 0
c gate 270 128 -269 0
128 -270 0
-269 -270 0
-128 269 270 0
c gate 271 -259 270 0
-259 -271 0
270 -271 0
259 -270 271 0
c gate 272 -249 -271 0
-249 -272 0
-271 -272 0
249 271 272 0
c gate 273 131 -272 0
131 -273 0
-272 -273 0
-131 272 273 0
c gate 274 126 195 0
126 -274 0
195 -274 0
-126 -195 274 0
c gate 275 -66 127 0
-66 -275 0
127 -275 0
66 -127 275 0
c gate 276 -68 -127 0
-68 -276 0
-127 -276 0
68 127 276 0
c gate 277 -126 -276 0
-126 -277 0
-276 -277 0
126 276 277 0
c gate 278 -275 277 0
-275 -278 0
277 -278 0
275 -277 278 0
c gate 279 129 -278 0
129 -279 0
-278 -279 0
-129 278 279 0
c gate 280 -274 279 0
-274 -280 0
279 -280 0
274 -279 280 0
c gate 281 126 185 0
126 -281 0
185 -281 0
-126 -185 281 0
c gate 282 -74 127 0
-74 -282 0
127 -282 0
74 -127 282 0
c gate 283 -76 -127 0
-76 -283 0
-127 -283 0
76 127 283 0
c gate 284 -126 -283 0
-126 -284 0
-283 -284 0
126 283 284 0
c gate 285 -282 284 0
-282 -285 0
284 -285 0
282 -284 285 0
c gate 286 -129 -285 0
-129 -286 0
-285 -286 0
129 285 286 0
c gate 287 -281 286 0
-281 -287 0
286 -287 0
281 -286 287 0
c gate 288 128 -287 0
128 -288 0
-287 -288 0
-128 287 288 0
c gate 289 -280 288 0
-280 -289 0
288 -289 0
280 -288 289 0
c gate 290 126 217 0
126 -290 0
217 -290 0
-126 -217 290 0
c gate 291 -78 127 0
-78 -291 0
127 -291 0
78 -127 291 0
c gate 292 -80 -127 0
-80 -292 0
-127 -292 0
80 127 292 0
c gate 293 -126 -292 0
-126 -293 0
-292 -293 0
126 292 293 0
c gate 294 -291 293 0
-291 -294 0
293 -294 0
291 -293 294 0
c gate 295 -129 -294 0
-129 -295 0
-294 -295 0
129 294 295 0
c gate 296 -290 295 0
-290 -296 0
295 -296 0
290 -295 296 0
c gate 297 126 207 0
126 -297 0
207 -297 0
-126 -207 297 0
c gate 298 -70 127 0
-70 -298 0
127 -298 0
70 -127 298 0
c gate 299 -72 -127 0
-72 -299 0
-127 -299 0
72 127 299 0
c gate 300 -126 -299 0
-126 -300 0
-299 -300 0
126 299 300 0
c gate 301 -298 300 0
-298 -301 0
300 -301 0
298 -300 301 0
c gate 302 129 -301 0
129 -302 0
-301 -302 0
-129 301 302 0
c gate 303 -297 302 0
-297 -303 0
302 -303 0
297 -302 303 0
c gate 304 -128 -303 0
-128 -304 0
-303 -304 0
128 303 304 0
c gate 305 -296 304 0
-296 -305 0
304 -305 0
296 -304 305 0
c gate 306 -131 -305 0
-131 -306 0
-305 -306 0
131 305 306 0
c gate 307 -289 306 0
-289 -307 0
306 -307 0
289 -306 307 0
c gate 308 130 -307 0
130 -308 0
-307 -308 0
-130 307 308 0
c gate 309 -273 308 0
-273 -309 0
308 -309 0
273 -308 309 0
c gate 310 -132 309 0
-132 -310 0
309 -310 0
132 -309 310 0
c gate 311 -55 127 0
-55 -311 0
127 -311 0
55 -127 311 0
c gate 312 -57 -127 0
-57 -312 0
-127 -312 0
57 127 312 0
c gate 313 126 -312 0
126 -313 0
-312 -313 0
-126 312 313 0
c gate 314 -311 313 0
-311 -314 0
313 -314 0
311 -313 314 0
c gate 315 -56 127 0
-56 -315 0
127 -315 0
56 -127 315 0
c gate 316 -58 -127 0
-58 -316 0
-127 -316 0
58 127 316 0
c gate 317 -315 -316 0
-315 -317 0
-316 -317 0
315 316 317 0
c gate 318 -126 317 0
-126 -318 0
317 -318 0
126 -317 318 0
c gate 319 129 -318 0
129 -319 0
-318 -319 0
-129 318 319 0
c gate 320 -314 319 0
-314 -320 0
319 -320 0
314 -319 320 0
c gate 321 -63 127 0
-63 -321 0
127 -321 0
63 -127 321 0
c gate 322 -65 -127 0
-65 -322 0
-127 -322 0
65 127 322 0
c gate 323 126 -322 0
126 -323 0
-322 -323 0
-126 322 323 0
c gate 324 -321 323 0
-321 -324 0
323 -324 0
321 -323 324 0
c gate 325 -126 191 0
-126 -325 0
191 -325 0
126 -191 325 0
c gate 326 -129 -325 0
-129 -326 0
-325 -326 0
129 325 326 0
c gate 327 -324 326 0
-324 -327 0
326 -327 0
324 -326 327 0
c gate 328 -128 -327 0
-128 -328 0
-327 -328 0
128 327 328 0
c gate 329 -320 328 0
-320 -329 0
328 -329 0
320 -328 329 0
c gate 330 -51 127 0
-51 -330 0
127 -330 0
51 -127 330 0
c gate 331 -53 -127 0
-53 -331 0
-127 -331 0
53 127 331 0
c gate 332 126 -331 0
126 -332 0
-331 -332 0
-126 331 332 0
c gate 333 -330 332 0
-330 -333 0
332 -333 0
330 -332 333 0
c gate 334 -52 127 0
-52 -334 0
127 -334 0
52 -127 334 0
c gate 335 -54 -127 0
-54 -335 0
-127 -335 0
54 127 335 0
c gate 336 -334 -335 0
-334 -336 0
-335 -336 0
334 335 336 0
c gate 337 -126 336 0
-126 -337 0
336 -337 0
126 -336 337 0
c gate 338 129 -337 0
129 -338 0
-337 -338 0
-129 337 338 0
c gate 339 -333 338 0
-333 -339 0
338 -339 0
333 -338 339 0
c gate 340 -60 127 0
-60 -340 0
127 -340 0
60 -127 340 0
c gate 341 -62 -127 0
-62 -341 0
-127 -341 0
62 127 341 0
c gate 342 -126 -341 0
-126 -342 0
-341 -342 0
126 341 342 0
c gate 343 -340 342 0
-340 -343 0
342 -343 0
340 -342 343 0
c gate 344 -59 127 0
-59 -344 0
127 -344 0
59 -127 344 0
c gate 345 -61 -127 0
-61 -345 0
-127 -345 0
61 127 345 0
c gate 346 126 -345 0
126 -346 0
-345 -346 0
-126 345 346 0
c gate 347 -344 346 0
-344 -347 0
346 -347 0
344 -346 347 0
c gate 348 -129 -347 0
-129 -348 0
-347 -348 0
129 347 348 0
c gate 349 -343 348 0
-343 -349 0
348 -349 0
343 -348 349 0
c gate 350 128 -349 0
128 -350 0
-349 -350 0
-128 349 350 0
c gate 351 -339 350 0
-339 -351 0
350 -351 0
339 -350 351 0
c gate 352 -329 -351 0
-329 -352 0
-351 -352 0
329 351 352 0
c gate 353 -131 -352 0
-131 -353 0
-352 -353 0
131 352 353 0
c gate 354 27 127 0
27 -354 0
127 -354 0
-27 -127 354 0
c gate 355 29 -127 0
29 -355 0
-127 -355 0
-29 127 355 0
c gate 356 126 -355 0
126 -356 0
-355 -356 0
-126 355 356 0
c gate 357 -354 356 0
-354 -357 0
356 -357 0
354 -356 357 0
c gate 358 28 127 0
28 -358 0
127 -358 0
-28 -127 358 0
c gate 359 30 -127 0
30 -359 0
-127 -359 0
-30 127 359 0
c gate 360 -126 -359 0
-126 -360 0
-359 -360 0
126 359 360 0
c gate 361 -358 360 0
-358 -361 0
360 -361 0
358 -360 361 0
c gate 362 -357 -361 0
-357 -362 0
-361 -362 0
357 361 362 0
c gate 363 -129 -362 0
-129 -363 0
-362 -363 0
129 362 363 0
c gate 364 21 -127 0
21 -364 0
-127 -364 0
-21 127 364 0
c gate 365 19 127 0
19 -365 0
127 -365 0
-19 -127 365 0
c gate 366 -364 -365 0
-364 -366 0
-365 -366 0
364 365 366 0
c gate 367 126 -366 0
126 -367 0
-366 -367 0
-126 366 367 0
c gate 368 -20 127 0
-20 -368 0
127 -368 0
20 -127 368 0
c gate 369 -22 -127 0
-22 -369 0
-127 -369 0
22 127 369 0
c gate 370 -368 -369 0
-368 -370 0
-369 -370 0
368 369 370 0
c gate 371 -126 370 0
-126 -371 0
370 -371 0
126 -370 371 0
c gate 372 129 -371 0
129 -372 0
-371 -372 0
-129 371 372 0
c gate 373 -367 372 0
-367 -373 0
372 -373 0
367 -372 373 0
c gate 374 -363 -373 0
-363 -374 0
-373 -374 0
363 373 374 0
c gate 375 128 -374 0
128 -375 0
-374 -375 0
-128 374 375 0
c gate 376 32 127 0
32 -376 0
127 -376 0
-32 -127 376 0
c gate 377 34 -127 0
34 -377 0
-127 -377 0
-34 127 377 0
c gate 378 -126 -377 0
-126 -378 0
-377 -378 0
126 377 378 0
c gate 379 -376 378 0
-376 -379 0
378 -379 0
376 -378 379 0
c gate 380 31 127 0
31 -380 0
127 -380 0
-31 -127 380 0
c gate 381 33 -127 0
33 -381 0
-127 -381 0
-33 127 381 0
c gate 382 126 -381 0
126 -382 0
-381 -382 0
-126 381 382 0
c gate 383 -380 382 0
-380 -383 0
382 -383 0
380 -382 383 0
c gate 384 -379 -383 0
-379 -384 0
-383 -384 0
379 383 384 0
c gate 385 -129 -384 0
-129 -385 0
-384 -385 0
129 384 385 0
c gate 386 25 -127 0
25 -386 0
-127 -386 0
-25 127 386 0
c gate 387 23 127 0
23 -387 0
127 -387 0
-23 -127 387 0
c gate 388 -386 -387 0
-386 -388 0
-387 -388 0
386 387 388 0
c gate 389 126 -388 0
126 -389 0
-388 -389 0
-126 388 389 0
c gate 390 -24 127 0
-24 -390 0
127 -390 0
24 -127 390 0
c gate 391 -26 -127 0
-26 -391 0
-127 -391 0
26 127 391 0
c gate 392 -390 -391 0
-390 -392 0
-391 -392 0
390 391 392 0
c gate 393 -126 392 0
-126 -393 0
392 -393 0
126 -392 393 0
c gate 394 129 -393 0
129 -394 0
-393 -394 0
-129 393 394 0
c gate 395 -389 394 0
-389 -395 0
394 -395 0
389 -394 395 0
c gate 396 -385 -395 0
-385 -396 0
-395 -396 0
385 395 396 0
c gate 397 -128 -396 0
-128 -397 0
-396 -397 0
128 396 397 0
c gate 398 131 -397 0
131 -398 0
-397 -398 0
-131 397 398 0
c gate 399 -375 398 0
-375 -399 0
398 -399 0
375 -398 399 0
c gate 400 -353 -399 0
-353 -400 0
-399 -400 0
353 399 400 0
c gate 401 130 -400 0
130 -401 0
-400 -401 0
-130 400 401 0
c gate 402 -132 401 0
-132 -402 0
401 -402 0
132 -401 402 0
c gate 403 -88 -127 0
-88 -403 0
-127 -403 0
88 127 403 0
c gate 404 -86 127 0
-86 -404 0
127 -404 0
86 -127 404 0
c gate 405 -403 -404 0
-403 -405 0
-404 -405 0
403 404 405 0
c gate 406 126 405 0
126 -406 0
405 -406 0
-126 -405 406 0
c gate 407 -89 -127 0
-89 -407 0
-127 -407 0
89 127 407 0
c gate 408 -87 127 0
-87 -408 0
127 -408 0
87 -127 408 0
c gate 409 -126 -408 0
-126 -409 0
-408 -409 0
126 408 409 0
c gate 410 -407 409 0
-407 -410 0
409 -410 0
407 -409 410 0
c gate 411 129 -410 0
129 -411 0
-410 -411 0
-129 410 411 0
c gate 412 -406 411 0
-406 -412 0
411 -412 0
406 -411 412 0
c gate 413 -96 -127 0
-96 -413 0
-127 -413 0
96 127 413 0
c gate 414 -94 127 0
-94 -414 0
127 -414 0
94 -127 414 0
c gate 415 -413 -414 0
-413 -415 0
-414 -415 0
413 414 415 0
c gate 416 126 415 0
126 -416 0
415 -416 0
-126 -415 416 0
c gate 417 -126 145 0
-126 -417 0
145 -417 0
126 -145 417 0
c gate 418 -129 -417 0
-129 -418 0
-417 -418 0
129 417 418 0
c gate 419 -416 418 0
-416 -419 0
418 -419 0
416 -418 419 0
c gate 420 -412 -419 0
-412 -420 0
-419 -420 0
412 419 420 0
c gate 421 128 -420 0
128 -421 0
-420 -421 0
-128 420 421 0
c gate 422 -98 127 0
-98 -422 0
127 -422 0
98 -127 422 0
c gate 423 -100 -127 0
-100 -423 0
-127 -423 0
100 127 423 0
c gate 424 126 -423 0
126 -424 0
-423 -424 0
-126 423 424 0
c gate 425 -422 424 0
-422 -425 0
424 -425 0
422 -424 425 0
c gate 426 -126 157 0
-126 -426 0
157 -426 0
126 -157 426 0
c gate 427 -129 -426 0
-129 -427 0
-426 -427 0
129 426 427 0
c gate 428 -425 427 0
-425 -428 0
427 -428 0
425 -427 428 0
c gate 429 -92 -127 0
-92 -429 0
-127 -429 0
92 127 429 0
c gate 430 -90 127 0
-90 -430 0
127 -430 0
90 -127 430 0
c gate 431 -429 -430 0
-429 -431 0
-430 -431 0
429 430 431 0
c gate 432 126 431 0
126 -432 0
431 -432 0
-126 -431 432 0
c gate 433 -93 -127 0
-93 -433 0
-127 -433 0
93 127 433 0
c gate 434 -91 127 0
-91 -434 0
127 -434 0
91 -127 434 0
c gate 435 -126 -434 0
-126 -435 0
-434 -435 0
126 434 435 0
c gate 436 -433 435 0
-433 -436 0
435 -436 0
433 -435 436 0
c gate 437 129 -436 0
129 -437 0
-436 -437 0
-129 436 437 0
c gate 438 -432 437 0
-432 -438 0
437 -438 0
432 -437 438 0
c gate 439 -428 -438 0
-428 -439 0
-438 -439 0
428 438 439 0
c gate 440 -128 -439 0
-128 -440 0
-439 -440 0
128 439 440 0
c gate 441 131 -440 0
131 -441 0
-440 -441 0
-131 440 441 0
c gate 442 -421 441 0
-421 -442 0
441 -442 0
421 -441 442 0
c gate 443 -3 -127 0
-3 -443 0
-127 -443 0
3 127 443 0
c gate 444 -1 127 0
-1 -444 0
127 -444 0
1 -127 444 0
c gate 445 -443 -444 0
-443 -445 0
-444 -445 0
443 444 445 0
c gate 446 126 445 0
126 -446 0
445 -446 0
-126 -445 446 0
c gate 447 -4 -127 0
-4 -447 0
-127 -447 0
4 127 447 0
c gate 448 -2 127 0
-2 -448 0
127 -448 0
2 -127 448 0
c gate 449 -126 -448 0
-126 -449 0
-448 -449 0
126 448 449 0
c gate 450 -447 449 0
-447 -450 0
449 -450 0
447 -449 450 0
c gate 451 -129 -450 0
-129 -451 0
-450 -451 0
129 450 451 0
c gate 452 -446 451 0
-446 -452 0
451 -452 0
446 -451 452 0
c gate 453 -120 -127 0
-120 -453 0
-127 -453 0
120 127 453 0
c gate 454 -118 127 0
-118 -454 0
127 -454 0
118 -127 454 0
c gate 455 -453 -454 0
-453 -455 0
-454 -455 0
453 454 455 0
c gate 456 126 455 0
126 -456 0
455 -456 0
-126 -455 456 0
c gate 457 -121 -127 0
-121 -457 0
-127 -457 0
121 127 457 0
c gate 458 -119 127 0
-119 -458 0
127 -458 0
119 -127 458 0
c gate 459 -126 -458 0
-126 -459 0
-458 -459 0
126 458 459 0
c gate 460 -457 459 0
-457 -460 0
459 -460 0
457 -459 460 0
c gate 461 129 -460 0
129 -461 0
-460 -461 0
-129 460 461 0
c gate 462 -456 461 0
-456 -462 0
461 -462 0
456 -461 462 0
c gate 463 -452 -462 0
-452 -463 0
-462 -463 0
452 462 463 0
c gate 464 128 -463 0
128 -464 0
-463 -464 0
-128 463 464 0
c gate 465 6 127 0
6 -465 0
127 -465 0
-6 -127 465 0
c gate 466 8 -127 0
8 -466 0
-127 -466 0
-8 127 466 0
c gate 467 -126 -466 0
-126 -467 0
-466 -467 0
126 466 467 0
c gate 468 -465 467 0
-465 -468 0
467 -468 0
465 -467 468 0
c gate 469 5 127 0
5 -469 0
127 -469 0
-5 -127 469 0
c gate 470 7 -127 0
7 -470 0
-127 -470 0
-7 127 470 0
c gate 471 126 -470 0
126 -471 0
-470 -471 0
-126 470 471 0
c gate 472 -469 471 0
-469 -472 0
471 -472 0
469 -471 472 0
c gate 473 -468 -472 0
-468 -473 0
-472 -473 0
468 472 473 0
c gate 474 -129 -473 0
-129 -474 0
-473 -474 0
129 473 474 0
c gate 475 125 -127 0
125 -475 0
-127 -475 0
-125 127 475 0
c gate 476 123 127 0
123 -476 0
127 -476 0
-123 -127 476 0
c gate 477 -475 -476 0
-475 -477 0
-476 -477 0
475 476 477 0
c gate 478 -126 -477 0
-126 -478 0
-477 -478 0
126 477 478 0
c gate 479 -124 -127 0
-124 -479 0
-127 -479 0
124 127 479 0
c gate 480 -122 127 0
-122 -480 0
127 -480 0
122 -127 480 0
c gate 481 -479 -480 0
-479 -481 0
-480 -481 0
479 480 481 0
c gate 482 126 481 0
126 -482 0
481 -482 0
-126 -481 482 0
c gate 483 129 -482 0
129 -483 0
-482 -483 0
-129 482 483 0
c gate 484 -478 483 0
-478 -484 0
483 -484 0
478 -483 484 0
c gate 485 -474 -484 0
-474 -485 0
-484 -485 0
474 484 485 0
c gate 486 -128 -485 0
-128 -486 0
-485 -486 0
128 485 486 0
c gate 487 -464 -486 0
-464 -487 0
-486 -487 0
464 486 487 0
c gate 488 -131 487 0
-131 -488 0
487 -488 0
131 -487 488 0
c gate 489 130 -488 0
130 -489 0
-488 -489 0
-130 488 489 0
c gate 490 -442 489 0
-442 -490 0
489 -490 0
442 -489 490 0
c gate 491 132 490 0
132 -491 0
490 -491 0
-132 -490 491 0
c gate 492 -87 -127 0
-87 -492 0
-127 -492 0
87 127 492 0
c gate 493 -85 127 0
-85 -493 0
127 -493 0
85 -127 493 0
c gate 494 126 -493 0
126 -494 0
-493 -494 0
-126 493 494 0
c gate 495 -492 494 0
-492 -495 0
494 -495 0
492 -494 495 0
c gate 496 -126 405 0
-126 -496 0
405 -496 0
126 -405 496 0
c gate 497 129 -496 0
129 -497 0
-496 -497 0
-129 496 497 0
c gate 498 -495 497 0
-495 -498 0
497 -498 0
495 -497 498 0
c gate 499 -95 -127 0
-95 -499 0
-127 -499 0
95 127 499 0
c gate 500 -93 127 0
-93 -500 0
127 -500 0
93 -127 500 0
c gate 501 126 -500 0
126 -501 0
-500 -501 0
-126 500 501 0
c gate 502 -499 501 0
-499 -502 0
501 -502 0
499 -501 502 0
c gate 503 -126 415 0
-126 -503 0
415 -503 0
126 -415 503 0
c gate 504 -129 -503 0
-129 -504 0
-503 -504 0
129 503 504 0
c gate 505 -502 504 0
-502 -505 0
504 -505 0
502 -504 505 0
c gate 506 -128 -505 0
-128 -506 0
-505 -506 0
128 505 506 0
c gate 507 -498 506 0
-498 -507 0
506 -507 0
498 -506 507 0
c gate 508 -91 -127 0
-91 -508 0
-127 -508 0
91 127 508 0
c gate 509 -89 127 0
-89 -509 0
127 -509 0
89 -127 509 0
c gate 510 126 -509 0
126 -510 0
-509 -510 0
-126 509 510 0
c gate 511 -508 510 0
-508 -511 0
510 -511 0
508 -510 511 0
c gate 512 -126 431 0
-126 -512 0
431 -512 0
126 -431 512 0
c gate 513 -129 -512 0
-129 -513 0
-512 -513 0
129 512 513 0
c gate 514 -511 513 0
-511 -514 0
513 -514 0
511 -513 514 0
c gate 515 -82 127 0
-82 -515 0
127 -515 0
82 -127 515 0
c gate 516 -84 -127 0
-84 -516 0
-127 -516 0
84 127 516 0
c gate 517 -126 -516 0
-126 -517 0
-516 -517 0
126 516 517 0
c gate 518 -515 517 0
-515 -518 0
517 -518 0
515 -517 518 0
c gate 519 -81 127 0
-81 -519 0
127 -519 0
81 -127 519 0
c gate 520 -83 -127 0
-83 -520 0
-127 -520 0
83 127 520 0
c gate 521 126 -520 0
126 -521 0
-520 -521 0
-126 520 521 0
c gate 522 -519 521 0
-519 -522 0
521 -522 0
519 -521 522 0
c gate 523 129 -522 0
129 -523 0
-522 -523 0
-129 522 523 0
c gate 524 -518 523 0
-518 -524 0
523 -524 0
518 -523 524 0
c gate 525 128 -524 0
128 -525 0
-524 -525 0
-128 524 525 0
c gate 526 -514 525 0
-514 -526 0
525 -526 0
514 -525 526 0
c gate 527 -507 -526 0
-507 -527 0
-526 -527 0
507 526 527 0
c gate 528 131 -527 0
131 -528 0
-527 -528 0
-131 527 528 0
c gate 529 -114 127 0
-114 -529 0
127 -529 0
114 -127 529 0
c gate 530 -116 -127 0
-116 -530 0
-127 -530 0
116 127 530 0
c gate 531 -126 -530 0
-126 -531 0
-530 -531 0
126 530 531 0
c gate 532 -529 531 0
-529 -532 0
531 -532 0
529 -531 532 0
c gate 533 115 -127 0
115 -533 0
-127 -533 0
-115 127 533 0
c gate 534 113 127 0
113 -534 0
127 -534 0
-113 -127 534 0
c gate 535 -533 -534 0
-533 -535 0
-534 -535 0
533 534 535 0
c gate 536 126 -535 0
126 -536 0
-535 -536 0
-126 535 536 0
c gate 537 129 -536 0
129 -537 0
-536 -537 0
-129 536 537 0
c gate 538 -532 537 0
-532 -538 0
537 -538 0
532 -537 538 0
c gate 539 -123 -127 0
-123 -539 0
-127 -539 0
123 127 539 0
c gate 540 -121 127 0
-121 -540 0
127 -540 0
121 -127 540 0
c gate 541 126 -540 0
126 -541 0
-540 -541 0
-126 540 541 0
c gate 542 -539 541 0
-539 -542 0
541 -542 0
539 -541 542 0
c gate 543 -126 481 0
-126 -543 0
481 -543 0
126 -481 543 0
c gate 544 -129 -543 0
-129 -544 0
-543 -544 0
129 543 544 0
c gate 545 -542 544 0
-542 -545 0
544 -545 0
542 -544 545 0
c gate 546 -538 -545 0
-538 -546 0
-545 -546 0
538 545 546 0
c gate 547 128 -546 0
128 -547 0
-546 -547 0
-128 546 547 0
c gate 548 119 -127 0
119 -548 0
-127 -548 0
-119 127 548 0
c gate 549 117 127 0
117 -549 0
127 -549 0
-117 -127 549 0
c gate 550 -548 -549 0
-548 -550 0
-549 -550 0
548 549 550 0
c gate 551 126 -550 0
126 -551 0
-550 -551 0
-126 550 551 0
c gate 552 -126 455 0
-126 -552 0
455 -552 0
126 -455 552 0
c gate 553 129 -552 0
129 -553 0
-552 -553 0
-129 552 553 0
c gate 554 -551 553 0
-551 -554 0
553 -554 0
551 -553 554 0
c gate 555 -2 -127 0
-2 -555 0
-127 -555 0
2 127 555 0
c gate 556 -125 127 0
-125 -556 0
127 -556 0
125 -127 556 0
c gate 557 126 -556 0
126 -557 0
-556 -557 0
-126 556 557 0
c gate 558 -555 557 0
-555 -558 0
557 -558 0
555 -557 558 0
c gate 559 -126 445 0
-126 -559 0
445 -559 0
126 -445 559 0
c gate 560 -129 -559 0
-129 -560 0
-559 -560 0
129 559 560 0
c gate 561 -558 560 0
-558 -561 0
560 -561 0
558 -560 561 0
c gate 562 -554 -561 0
-554 -562 0
-561 -562 0
554 561 562 0
c gate 563 -128 -562 0
-128 -563 0
-562 -563 0
128 562 563 0
c gate 564 -131 -563 0
-131 -564 0
-563 -564 0
131 563 564 0
c gate 565 -547 564 0
-547 -565 0
564 -565 0
547 -564 565 0
c gate 566 130 -565 0
130 -566 0
-565 -566 0
-130 565 566 0
c gate 567 -528 566 0
-528 -567 0
566 -567 0
528 -566 567 0
c gate 568 132 567 0
132 -568 0
567 -568 0
-132 -567 568 0
c gate 569 129 362 0
129 -569 0
362 -569 0
-129 -362 569 0
c gate 570 -35 127 0
-35 -570 0
127 -570 0
35 -127 570 0
c gate 571 -37 -127 0
-37 -571 0
-127 -571 0
37 127 571 0
c gate 572 126 -571 0
126 -572 0
-571 -572 0
-126 571 572 0
c gate 573 -570 572 0
-570 -573 0
572 -573 0
570 -572 573 0
c gate 574 -36 127 0
-36 -574 0
127 -574 0
36 -127 574 0
c gate 575 -38 -127 0
-38 -575 0
-127 -575 0
38 127 575 0
c gate 576 -126 -575 0
-126 -576 0
-575 -576 0
126 575 576 0
c gate 577 -574 576 0
-574 -577 0
576 -577 0
574 -576 577 0
c gate 578 -573 -577 0
-573 -578 0
-577 -578 0
573 577 578 0
c gate 579 -129 -578 0
-129 -579 0
-578 -579 0
129 578 579 0
c gate 580 -128 -579 0
-128 -580 0
-579 -580 0
128 579 580 0
c gate 581 -569 580 0
-569 -581 0
580 -581 0
569 -580 581 0
c gate 582 128 -396 0
128 -582 0
-396 -582 0
-128 396 582 0
c gate 583 -131 -582 0
-131 -583 0
-582 -583 0
131 582 583 0
c gate 584 -581 583 0
-581 -584 0
583 -584 0
581 -583 584 0
c gate 585 131 487 0
131 -585 0
487 -585 0
-131 -487 585 0
c gate 586 130 -585 0
130 -586 0
-585 -586 0
-130 585 586 0
c gate 587 -584 586 0
-584 -587 0
586 -587 0
584 -586 587 0
c gate 588 -132 587 0
-132 -588 0
587 -588 0
132 -587 588 0
c gate 589 -51 -127 0
-51 -589 0
-127 -589 0
51 127 589 0
c gate 590 -49 127 0
-49 -590 0
127 -590 0
49 -127 590 0
c gate 591 -589 -590 0
-589 -591 0
-590 -591 0
589 590 591 0
c gate 592 126 -591 0
126 -592 0
-591 -592 0
-126 591 592 0
c gate 593 -50 127 0
-50 -593 0
127 -593 0
50 -127 593 0
c gate 594 -52 -127 0
-52 -594 0
-127 -594 0
52 127 594 0
c gate 595 -593 -594 0
-593 -595 0
-594 -595 0
593 594 595 0
c gate 596 -126 -595 0
-126 -596 0
-595 -596 0
126 595 596 0
c gate 597 -129 -596 0
-129 -597 0
-596 -597 0
129 596 597 0
c gate 598 -592 597 0
-592 -598 0
597 -598 0
592 -597 598 0
c gate 599 129 -258 0
129 -599 0
-258 -599 0
-129 258 599 0
c gate 600 128 -599 0
128 -600 0
-599 -600 0
-128 599 600 0
c gate 601 -598 600 0
-598 -601 0
600 -601 0
598 -600 601 0
c gate 602 54 127 0
54 -602 0
127 -602 0
-54 -127 602 0
c gate 603 56 -127 0
56 -603 0
-127 -603 0
-56 127 603 0
c gate 604 -126 -603 0
-126 -604 0
-603 -604 0
126 603 604 0
c gate 605 -602 604 0
-602 -605 0
604 -605 0
602 -604 605 0
c gate 606 -55 -127 0
-55 -606 0
-127 -606 0
55 127 606 0
c gate 607 -53 127 0
-53 -607 0
127 -607 0
53 -127 607 0
c gate 608 -606 -607 0
-606 -608 0
-607 -608 0
606 607 608 0
c gate 609 126 -608 0
126 -609 0
-608 -609 0
-126 608 609 0
c gate 610 -129 -609 0
-129 -610 0
-609 -610 0
129 609 610 0
c gate 611 -605 610 0
-605 -611 0
610 -611 0
605 -610 611 0
c gate 612 129 -246 0
129 -612 0
-246 -612 0
-129 246 612 0
c gate 613 -128 -612 0
-128 -613 0
-612 -613 0
128 612 613 0
c gate 614 -611 613 0
-611 -614 0
613 -614 0
611 -613 614 0
c gate 615 -601 -614 0
-601 -615 0
-614 -615 0
601 614 615 0
c gate 616 -131 -615 0
-131 -616 0
-615 -616 0
131 615 616 0
c gate 617 -23 -127 0
-23 -617 0
-127 -617 0
23 127 617 0
c gate 618 -21 127 0
-21 -618 0
127 -618 0
21 -127 618 0
c gate 619 -617 -618 0
-617 -619 0
-618 -619 0
617 618 619 0
c gate 620 126 619 0
126 -620 0
619 -620 0
-126 -619 620 0
c gate 621 -22 127 0
-22 -621 0
127 -621 0
22 -127 621 0
c gate 622 -24 -127 0
-24 -622 0
-127 -622 0
24 127 622 0
c gate 623 -126 -622 0
-126 -623 0
-622 -623 0
126 622 623 0
c gate 624 -621 623 0
-621 -624 0
623 -624 0
621 -623 624 0
c gate 625 -129 -624 0
-129 -625 0
-624 -625 0
129 624 625 0
c gate 626 -620 625 0
-620 -626 0
625 -626 0
620 -625 626 0
c gate 627 -15 -127 0
-15 -627 0
-127 -627 0
15 127 627 0
c gate 628 -13 127 0
-13 -628 0
127 -628 0
13 -127 628 0
c gate 629 -627 -628 0
-627 -629 0
-628 -629 0
627 628 629 0
c gate 630 126 629 0
126 -630 0
629 -630 0
-126 -629 630 0
c gate 631 -14 127 0
-14 -631 0
127 -631 0
14 -127 631 0
c gate 632 -16 -127 0
-16 -632 0
-127 -632 0
16 127 632 0
c gate 633 -126 -632 0
-126 -633 0
-632 -633 0
126 632 633 0
c gate 634 -631 633 0
-631 -634 0
633 -634 0
631 -633 634 0
c gate 635 129 -634 0
129 -635 0
-634 -635 0
-129 634 635 0
c gate 636 -630 635 0
-630 -636 0
635 -636 0
630 -635 636 0
c gate 637 -626 -636 0
-626 -637 0
-636 -637 0
626 636 637 0
c gate 638 -128 -637 0
-128 -638 0
-637 -638 0
128 637 638 0
c gate 639 10 127 0
10 -639 0
127 -639 0
-10 -127 639 0
c gate 640 12 -127 0
12 -640 0
-127 -640 0
-12 127 640 0
c gate 641 -126 -640 0
-126 -641 0
-640 -641 0
126 640 641 0
c gate 642 -639 641 0
-639 -642 0
641 -642 0
639 -641 642 0
c gate 643 11 -127 0
11 -643 0
-127 -643 0
-11 127 643 0
c gate 644 9 127 0
9 -644 0
127 -644 0
-9 -127 644 0
c gate 645 126 -644 0
126 -645 0
-644 -645 0
-126 644 645 0
c gate 646 -643 645 0
-643 -646 0
645 -646 0
643 -645 646 0
c gate 647 -642 -646 0
-642 -647 0
-646 -647 0
642 646 647 0
c gate 648 129 -647 0
129 -648 0
-647 -648 0
-129 647 648 0
c gate 649 20 -127 0
20 -649 0
-127 -649 0
-20 127 649 0
c gate 650 18 127 0
18 -650 0
127 -650 0
-18 -127 650 0
c gate 651 -649 -650 0
-649 -651 0
-650 -651 0
649 650 651 0
c gate 652 -126 -651 0
-126 -652 0
-651 -652 0
126 651 652 0
c gate 653 -19 -127 0
-19 -653 0
-127 -653 0
19 127 653 0
c gate 654 -17 127 0
-17 -654 0
127 -654 0
17 -127 654 0
c gate 655 -653 -654 0
-653 -655 0
-654 -655 0
653 654 655 0
c gate 656 126 655 0
126 -656 0
655 -656 0
-126 -655 656 0
c gate 657 -129 -656 0
-129 -657 0
-656 -657 0
129 656 657 0
c gate 658 -652 657 0
-652 -658 0
657 -658 0
652 -657 658 0
c gate 659 -648 -658 0
-648 -659 0
-658 -659 0
648 658 659 0
c gate 660 128 -659 0
128 -660 0
-659 -660 0
-128 659 660 0
c gate 661 -638 -660 0
-638 -661 0
-660 -661 0
638 660 661 0
c gate 662 131 -661 0
131 -662 0
-661 -662 0
-131 661 662 0
c gate 663 130 -662 0
130 -663 0
-662 -663 0
-130 662 663 0
c gate 664 -616 663 0
-616 -664 0
663 -664 0
616 -663 664 0
c gate 665 132 664 0
132 -665 0
664 -665 0
-132 -664 665 0
c gate 666 126 336 0
126 -666 0
336 -666 0
-126 -336 666 0
c gate 667 -126 608 0
-126 -667 0
608 -667 0
126 -608 667 0
c gate 668 -129 -667 0
-129 -668 0
-667 -668 0
129 667 668 0
c gate 669 -666 668 0
-666 -669 0
668 -669 0
666 -668 669 0
c gate 670 -44 127 0
-44 -670 0
127 -670 0
44 -127 670 0
c gate 671 -46 -127 0
-46 -671 0
-127 -671 0
46 127 671 0
c gate 672 126 -671 0
126 -672 0
-671 -672 0
-126 671 672 0
c gate 673 -670 672 0
-670 -673 0
672 -673 0
670 -672 673 0
c gate 674 -126 244 0
-126 -674 0
244 -674 0
126 -244 674 0
c gate 675 129 -674 0
129 -675 0
-674 -675 0
-129 674 675 0
c gate 676 -673 675 0
-673 -676 0
675 -676 0
673 -675 676 0
c gate 677 -669 -676 0
-669 -677 0
-676 -677 0
669 676 677 0
c gate 678 128 -677 0
128 -678 0
-677 -678 0
-128 677 678 0
c gate 679 -48 127 0
-48 -679 0
127 -679 0
48 -127 679 0
c gate 680 -50 -127 0
-50 -680 0
-127 -680 0
50 127 680 0
c gate 681 126 -680 0
126 -681 0
-680 -681 0
-126 680 681 0
c gate 682 -679 681 0
-679 -682 0
681 -682 0
679 -681 682 0
c gate 683 -126 591 0
-126 -683 0
591 -683 0
126 -591 683 0
c gate 684 129 -683 0
129 -684 0
-683 -684 0
-129 683 684 0
c gate 685 -682 684 0
-682 -685 0
684 -685 0
682 -684 685 0
c gate 686 126 317 0
126 -686 0
317 -686 0
-126 -317 686 0
c gate 687 -59 -127 0
-59 -687 0
-127 -687 0
59 127 687 0
c gate 688 -57 127 0
-57 -688 0
127 -688 0
57 -127 688 0
c gate 689 -126 -688 0
-126 -689 0
-688 -689 0
126 688 689 0
c gate 690 -687 689 0
-687 -690 0
689 -690 0
687 -689 690 0
c gate 691 -129 -690 0
-129 -691 0
-690 -691 0
129 690 691 0
c gate 692 -686 691 0
-686 -692 0
691 -692 0
686 -691 692 0
c gate 693 -685 -692 0
-685 -693 0
-692 -693 0
685 692 693 0
c gate 694 -128 -693 0
-128 -694 0
-693 -694 0
128 693 694 0
c gate 695 -131 -694 0
-131 -695 0
-694 -695 0
131 694 695 0
c gate 696 -678 695 0
-678 -696 0
695 -696 0
678 -695 696 0
c gate 697 126 370 0
126 -697 0
370 -697 0
-126 -370 697 0
c gate 698 -126 619 0
-126 -698 0
619 -698 0
126 -619 698 0
c gate 699 -129 -698 0
-129 -699 0
-698 -699 0
129 698 699 0
c gate 700 -697 699 0
-697 -700 0
699 -700 0
697 -699 700 0
c gate 701 -12 127 0
-12 -701 0
127 -701 0
12 -127 701 0
c gate 702 -14 -127 0
-14 -702 0
-127 -702 0
14 127 702 0
c gate 703 126 -702 0
126 -703 0
-702 -703 0
-126 702 703 0
c gate 704 -701 703 0
-701 -704 0
703 -704 0
701 -703 704 0
c gate 705 -126 629 0
-126 -705 0
629 -705 0
126 -629 705 0
c gate 706 129 -705 0
129 -706 0
-705 -706 0
-129 705 706 0
c gate 707 -704 706 0
-704 -707 0
706 -707 0
704 -706 707 0
c gate 708 -700 -707 0
-700 -708 0
-707 -708 0
700 707 708 0
c gate 709 128 -708 0
128 -709 0
-708 -709 0
-128 708 709 0
c gate 710 -16 127 0
-16 -710 0
127 -710 0
16 -127 710 0
c gate 711 -18 -127 0
-18 -711 0
-127 -711 0
18 127 711 0
c gate 712 126 -711 0
126 -712 0
-711 -712 0
-126 711 712 0
c gate 713 -710 712 0
-710 -713 0
712 -713 0
710 -712 713 0
c gate 714 -126 655 0
-126 -714 0
655 -714 0
126 -655 714 0
c gate 715 129 -714 0
129 -715 0
-714 -715 0
-129 714 715 0
c gate 716 -713 715 0
-713 -716 0
715 -716 0
713 -715 716 0
c gate 717 126 392 0
126 -717 0
392 -717 0
-126 -392 717 0
c gate 718 -27 -127 0
-27 -718 0
-127 -718 0
27 127 718 0
c gate 719 -25 127 0
-25 -719 0
127 -719 0
25 -127 719 0
c gate 720 -126 -719 0
-126 -720 0
-719 -720 0
126 719 720 0
c gate 721 -718 720 0
-718 -721 0
720 -721 0
718 -720 721 0
c gate 722 -129 -721 0
-129 -722 0
-721 -722 0
129 721 722 0
c gate 723 -717 722 0
-717 -723 0
722 -723 0
717 -722 723 0
c gate 724 -716 -723 0
-716 -724 0
-723 -724 0
716 723 724 0
c gate 725 -128 -724 0
-128 -725 0
-724 -725 0
128 724 725 0
c gate 726 131 -725 0
131 -726 0
-725 -726 0
-131 725 726 0
c gate 727 -709 726 0
-709 -727 0
726 -727 0
709 -726 727 0
c gate 728 130 -727 0
130 -728 0
-727 -728 0
-130 727 728 0
c gate 729 -696 728 0
-696 -729 0
728 -729 0
696 -728 729 0
c gate 730 665 -729 0
665 -730 0
-729 -730 0
-665 729 730 0
c gate 731 132 401 0
132 -731 0
401 -731 0
-132 -401 731 0
c gate 732 -730 -731 0
-730 -732 0
-731 -732 0
730 731 732 0
c gate 733 132 309 0
132 -733 0
309 -733 0
-132 -309 733 0
c gate 734 105 127 0
105 -734 0
127 -734 0
-105 -127 734 0
c gate 735 107 -127 0
107 -735 0
-127 -735 0
-107 127 735 0
c gate 736 -126 -735 0
-126 -736 0
-735 -736 0
126 735 736 0
c gate 737 -734 736 0
-734 -737 0
736 -737 0
734 -736 737 0
c gate 738 126 -139 0
126 -738 0
-139 -738 0
-126 139 738 0
c gate 739 129 -738 0
129 -739 0
-738 -739 0
-129 738 739 0
c gate 740 -737 739 0
-737 -740 0
739 -740 0
737 -739 740 0
c gate 741 114 -127 0
114 -741 0
-127 -741 0
-114 127 741 0
c gate 742 112 127 0
112 -742 0
127 -742 0
-112 -127 742 0
c gate 743 126 -742 0
126 -743 0
-742 -743 0
-126 742 743 0
c gate 744 -741 743 0
-741 -744 0
743 -744 0
741 -743 744 0
c gate 745 -126 535 0
-126 -745 0
535 -745 0
126 -535 745 0
c gate 746 -129 -745 0
-129 -746 0
-745 -746 0
129 745 746 0
c gate 747 -744 746 0
-744 -747 0
746 -747 0
744 -746 747 0
c gate 748 -740 -747 0
-740 -748 0
-747 -748 0
740 747 748 0
c gate 749 128 -748 0
128 -749 0
-748 -749 0
-128 748 749 0
c gate 750 109 127 0
109 -750 0
127 -750 0
-109 -127 750 0
c gate 751 111 -127 0
111 -751 0
-127 -751 0
-111 127 751 0
c gate 752 -126 -751 0
-126 -752 0
-751 -752 0
126 751 752 0
c gate 753 -750 752 0
-750 -753 0
752 -753 0
750 -752 753 0
c gate 754 126 -171 0
126 -754 0
-171 -754 0
-126 171 754 0
c gate 755 129 -754 0
129 -755 0
-754 -755 0
-129 754 755 0
c gate 756 -753 755 0
-753 -756 0
755 -756 0
753 -755 756 0
c gate 757 118 -127 0
118 -757 0
-127 -757 0
-118 127 757 0
c gate 758 116 127 0
116 -758 0
127 -758 0
-116 -127 758 0
c gate 759 126 -758 0
126 -759 0
-758 -759 0
-126 758 759 0
c gate 760 -757 759 0
-757 -760 0
759 -760 0
757 -759 760 0
c gate 761 -126 550 0
-126 -761 0
550 -761 0
126 -550 761 0
c gate 762 -129 -761 0
-129 -762 0
-761 -762 0
129 761 762 0
c gate 763 -760 762 0
-760 -763 0
762 -763 0
760 -762 763 0
c gate 764 -756 -763 0
-756 -764 0
-763 -764 0
756 763 764 0
c gate 765 -128 -764 0
-128 -765 0
-764 -765 0
128 764 765 0
c gate 766 131 -765 0
131 -766 0
-765 -766 0
-131 765 766 0
c gate 767 -749 766 0
-749 -767 0
766 -767 0
749 -766 767 0
c gate 768 -131 -661 0
-131 -768 0
-661 -768 0
131 661 768 0
c gate 769 130 -768 0
130 -769 0
-768 -769 0
-130 768 769 0
c gate 770 -767 769 0
-767 -770 0
769 -770 0
767 -769 770 0
c gate 771 -132 770 0
-132 -771 0
770 -771 0
132 -770 771 0
c gate 772 -733 -771 0
-733 -772 0
-771 -772 0
733 771 772 0
c gate 773 732 772 0
732 -773 0
772 -773 0
-732 -772 773 0
c gate 774 -588 -773 0
-588 -774 0
-773 -774 0
588 773 774 0
c gate 775 -132 664 0
-132 -775 0
664 -775 0
132 -664 775 0
c gate 776 -774 -775 0
-774 -776 0
-775 -776 0
774 775 776 0
c gate 777 132 226 0
132 -777 0
226 -777 0
-132 -226 777 0
c gate 778 -132 729 0
-132 -778 0
729 -778 0
132 -729 778 0
c gate 779 -777 -778 0
-777 -779 0
-778 -779 0
777 778 779 0
c gate 780 -776 779 0
-776 -780 0
779 -780 0
776 -779 780 0
c gate 781 -568 780 0
-568 -781 0
780 -781 0
568 -780 781 0
c gate 782 -491 781 0
-491 -782 0
781 -782 0
491 -781 782 0
c gate 783 -402 -782 0
-402 -783 0
-782 -783 0
402 782 783 0
c gate 784 -310 783 0
-310 -784 0
783 -784 0
310 -783 784 0
c gate 785 227 -784 0
227 -785 0
-784 -785 0
-227 784 785 0
c gate 786 132 587 0
132 -786 0
587 -786 0
-132 -587 786 0
c gate 787 132 770 0
132 -787 0
770 -787 0
-132 -770 787 0
c gate 788 784 -787 0
784 -788 0
-787 -788 0
-784 787 788 0
c gate 789 -786 -788 0
-786 -789 0
-788 -789 0
786 788 789 0
c gate 790 665 -789 0
665 -790 0
-789 -790 0
-665 789 790 0
c gate 791 -785 -790 0
-785 -791 0
-790 -791 0
785 790 791 0
c gate 792 132 729 0
132 -792 0
729 -792 0
-132 -729 792 0
c gate 793 791 -792 0
791 -793 0
-792 -793 0
-791 792 793 0
c gate 794 -791 792 0
-791 -794 0
792 -794 0
791 -792 794 0
c gate 795 -793 -794 0
-793 -795 0
-794 -795 0
793 794 795 0
c PO
795 0
